[2026-03-23T13:36:25.888Z] Pipeline "set_exp_2_exp_2_n020_c005_g005" → 2026_03_23_13_36_25_set_exp_2_exp_2_n020_c005_g005_max.sol
Set parameter WLSAccessID
Set parameter WLSSecret
Set parameter LicenseID to value 2792458
Set parameter LogFile to value "gurobi.log"
Using license file /root/gurobi.lic
Academic license 2792458 - for non-commercial use only - registered to an___@studenti.unipg.it

Gurobi Optimizer version 13.0.1 build v13.0.1rc0 (linux64 - "Ubuntu 24.04.4 LTS")
Copyright (c) 2026, Gurobi Optimization, LLC

Warning: Duplicate section found (read 'binary') - Is a variable name equal to an LP file format keyword?
Warning: Duplicate section found (read 'binary') - Is a variable name equal to an LP file format keyword?
Warning: Duplicate section found (read 'binary') - Is a variable name equal to an LP file format keyword?
Warning: Duplicate section found (read 'binary') - Is a variable name equal to an LP file format keyword?
Warning: Duplicate section found (read 'binary') - Is a variable name equal to an LP file format keyword?
Warning: Duplicate section found (read 'binary') - Is a variable name equal to an LP file format keyword?
Warning: Duplicate section found (read 'binary') - Is a variable name equal to an LP file format keyword?
Warning: Duplicate section found (read 'binary') - Is a variable name equal to an LP file format keyword?
Warning: Duplicate section found (read 'binary') - Is a variable name equal to an LP file format keyword?
Warning: Duplicate section found (read 'binary') - Is a variable name equal to an LP file format keyword?
Warning: Further warnings of this type will be omitted.
Read LP format model from file /root/bgw/data/uploads/2026_03_23_13_36_25_set_exp_2_exp_2_n020_c005_g005_max.lp
Reading time = 0.00 seconds
: 2785 rows, 306 columns, 8231 nonzeros

Using Gurobi shared library /opt/gurobi1301/linux64/lib/libgurobi.so.13.0.1

CPU model: AMD EPYC-Genoa Processor, instruction set [SSE2|AVX|AVX2|AVX512]
Thread count: 16 physical cores, 16 logical processors, using up to 16 threads

Academic license 2792458 - for non-commercial use only - registered to an___@studenti.unipg.it
Optimize a model with 2785 rows, 306 columns and 8231 nonzeros (Max)
Model fingerprint: 0xc4f712f7
Model has 9 linear objective coefficients
Variable types: 29 continuous, 277 integer (277 binary)
Coefficient statistics:
  Matrix range     [1e+00, 2e+01]
  Objective range  [1e+00, 1e+00]
  Bounds range     [1e+00, 1e+00]
  RHS range        [1e+00, 2e+01]

Found heuristic solution: objective 9.0000000
Presolve removed 469 rows and 94 columns
Presolve time: 0.01s
Presolved: 2316 rows, 212 columns, 7084 nonzeros
Variable types: 0 continuous, 212 integer (204 binary)
Found heuristic solution: objective 14.0000000

Root relaxation: objective 3.900000e+01, 279 iterations, 0.01 seconds (0.01 work units)

    Nodes    |    Current Node    |     Objective Bounds      |     Work
 Expl Unexpl |  Obj  Depth IntInf | Incumbent    BestBd   Gap | It/Node Time

     0     0   39.00000    0   22   14.00000   39.00000   179%     -    0s
H    0     0                      15.0000000   39.00000   160%     -    0s
H    0     0                      16.0000000   39.00000   144%     -    0s
H    0     0                      17.0000000   39.00000   129%     -    0s
H    0     0                      21.0000000   39.00000  85.7%     -    0s
     0     0   39.00000    0   32   21.00000   39.00000  85.7%     -    0s
     0     0   39.00000    0   32   21.00000   39.00000  85.7%     -    0s
     0     0   39.00000    0   40   21.00000   39.00000  85.7%     -    0s
     0     0   39.00000    0   22   21.00000   39.00000  85.7%     -    0s
H    0     0                      22.0000000   39.00000  77.3%     -    0s
     0     0   39.00000    0   32   22.00000   39.00000  77.3%     -    0s
     0     0   39.00000    0   22   22.00000   39.00000  77.3%     -    0s
H    0     0                      23.0000000   39.00000  69.6%     -    0s
     0     0   39.00000    0   33   23.00000   39.00000  69.6%     -    0s
     0     0   39.00000    0   33   23.00000   39.00000  69.6%     -    0s
     0     0   39.00000    0   34   23.00000   39.00000  69.6%     -    0s
     0     0   39.00000    0   33   23.00000   39.00000  69.6%     -    0s
     0     0   38.88889    0   31   23.00000   38.88889  69.1%     -    0s
     0     0   38.88889    0   31   23.00000   38.88889  69.1%     -    0s
     0     0   38.77778    0   31   23.00000   38.77778  68.6%     -    0s
     0     0   38.77778    0   31   23.00000   38.77778  68.6%     -    0s
     0     2   38.00000    0   31   23.00000   38.00000  65.2%     -    0s
H  115   113                      24.0000000   38.00000  58.3%  56.9    0s

Cutting planes:
  Cover: 14
  MIR: 1
  Inf proof: 27
  Zero half: 3

Explored 2181 nodes (149122 simplex iterations) in 0.99 seconds (1.34 work units)
Thread count was 16 (of 16 available processors)

Solution count 9: 24 23 22 ... 9

Optimal solution found (tolerance 1.00e-04)
Best objective 2.400000000000e+01, best bound 2.400000000000e+01, gap 0.0000%

Wrote result file '/root/bgw/data/results/2026_03_23_13_36_25_set_exp_2_exp_2_n020_c005_g005_max.sol'

